(declare-const term_to_project_onto0 Real)
(declare-const term_to_project_onto Real)
(assert (exists
         ((uninterp?1 Int) (uninterp?2 Int) (uninterp?3 Int) (uninterp?4 Int)
            (uninterp?5 Int) (uninterp?6 Int) (|v'?7| Int) (|d'?8| Int)
            (d?9 Int) (v?10 Int) (k?11 Int) (q?12 Int) (s?13 Int) (r?14 Int)
            (p?15 Int) (c?16 Int) (a?17 Int) (b?18 Int) (y?19 Int) (x?20 Int))
         (and (<= (+ (- d?9) 1) 0) (<= (- k?11) 0) (<= (+ (- y?19) 1) 0)
                (<= (+ (- x?20) 1) 0) (= (+ (- x?20) 1) 0)
                (= (+ x?20 (- y?19)) 0)
                (= (+ a?17 (- uninterp?6) (- uninterp?5)) 0)
                (= (+ b?18 (- uninterp?4) (- uninterp?3)) 0)
                (= (+ (- c?16) a?17 (- uninterp?2)) 0)
                (= (+ v?10 (- uninterp?1)) 0) (<= (+ (* 2 v?10) (- c?16)) 0)
                (= (+ |v'?7| (* -2 v?10)) 0) (= (+ |d'?8| (* -2 d?9)) 0)
                (<= b?18 uninterp?1) (<= s?13 uninterp?3)
                (<= uninterp?3 s?13) (<= q?12 uninterp?4)
                (<= uninterp?4 q?12) (<= r?14 uninterp?5)
                (<= uninterp?5 r?14) (<= p?15 uninterp?6)
                (<= uninterp?6 p?15)
                (= term_to_project_onto0 (+ |d'?8| (- d?9)))
                (= term_to_project_onto (+ |v'?7| (- v?10))))))
(check-sat)
